#       time        depth ve_stress_xx ve_stress_yy ve_stress_xy
           0        10000            0            0            0
           0        30000            0            0            0
           0        50000            0            0            0
           0        70000            0            0            0
           0        90000            0            0            0
        1000        10000        1e+06       -1e+06  -0.00440613
        1000        30000        1e+06       -1e+06   0.00184289
        1000        50000        1e+06       -1e+06   0.00316903
        1000        70000        1e+06       -1e+06  -0.00731745
        1000        90000        1e+06       -1e+06    0.0119232
        2000        10000       666667      -666667   -0.0029409
        2000        30000       666667      -666667   0.00122904
        2000        50000       666667      -666667   0.00211482
        2000        70000       666667      -666667  -0.00487754
        2000        90000       666667      -666667    0.0079459
