#       time        depth ve_stress_xx ve_stress_yy ve_stress_xy
           0        10000            0            0            0
           0        30000            0            0            0
           0        50000            0            0            0
           0        70000            0            0            0
           0        90000            0            0            0
        1000        10000        1e+06       -1e+06     0.624111
        1000        30000        1e+06       -1e+06     0.192543
        1000        50000        1e+06       -1e+06     0.256495
        1000        70000        1e+06       -1e+06     0.177849
        1000        90000        1e+06       -1e+06  0.000402648
        2000        10000       666667      -666667      0.41598
        2000        30000       666667      -666667     0.128328
        2000        50000       666667      -666667     0.171005
        2000        70000       666667      -666667     0.118616
        2000        90000       666667      -666667  0.000295534
